results/x-filo0/X-n139-k10.vrp_seed-15.vrp.sol
Route #1: 20 45 110 35 58 13 97 31 50 74 10 109 88
Route #2: 123 27 115 34 131 38 69 94 108 22 112 25 125 36
Route #3: 89 86 33 135 14 101 11 17 37 40 134 102 81
Route #4: 76 122 138 55 46 43 77 106 82 105 111 121 79
Route #5: 65 48 66 19 61 60 59 42 67 100 71 91 56
Route #6: 73 120 78 80 41 92 107 132 93 130 127 64 133 75 54
Route #7: 104 136 83 68 116 128 47 119 1 18 21 103 28 63
Route #8: 98 3 7 30 84 51 39 15 8 57 87 52 126 95
Route #9: 16 32 118 85 24 114 137 9 26 23 4 62 70 124
Route #10: 29 44 72 117 12 90 113 6 5 96 53 129 49 2 99
Cost 13697.000000