results/x-long/X-n139-k10.vrp_seed-15.out
13590	1354
